50
    1    37    37
    2    21    21
    3     3     3
    4    26    26
    5    25    25
    6    27    27
    7    22    22
    8     5     5
    9    15    15
   10    41    41
   11    19    19
   12    32    32
   13     4     4
   14    21    21
   15     7     7
   16    33    33
   17    26    26
   18    10    10
   19    17    17
   20    32    32
   21     7     7
   22    48    48
   23    18    18
   24    36    36
   25     3     3
   26    30    30
   27    17    17
   28     9     9
   29    44    44
   30    18    18
   31    14    14
   32    49    49
   33     8     8
   34    29    29
   35    43    43
   36    47    47
   37    38    38
   38    46    46
   39    15    15
   40     1     1
   41    20    20
   42    43    43
   43    45    45
   44    32    32
   45     5     5
   46    39    39
   47    32    32
   48    23    23
   49    38    38
   50    40    40
840
